$ http://rohanrao.blogspot.com/2011/07/solving-star-battle-solved-example-1.html
$ basically one grid, with many "tutorial" steps

letting grid be 8
letting starcount be 2
letting numblocks be 8


letting blocks be 
[
    [1,2,2,2,2,3,3,3],
    [1,2,2,3,3,3,3,3],
    [1,2,2,3,4,3,3,3],
    [1,1,4,4,4,5,5,5],
    [1,4,4,4,6,5,7,5],
    [1,8,4,6,6,5,7,5],
    [8,8,8,6,6,6,7,7],
    [8,8,7,7,7,7,7,7],
]
